(set-info :smt-lib-version 2.6)
(set-logic QF_LRA)
(set-info :source |
TLP-GP automated DTP to SMT-LIB encoding for planning
by F.Maris and P.Regnier, IRIT - Universite Paul Sabatier, Toulouse

|)
(set-info :category "industrial")
(set-info :status sat)
(declare-fun St_spy_variable () Real)
(declare-fun t_Init_0 () Real)
(declare-fun t_Goal_16 () Real)
(declare-fun t_C_N4_12 () Real)
(declare-fun t_B_N4_11 () Real)
(declare-fun t_C_N3_9 () Real)
(declare-fun t_B_N3_8 () Real)
(declare-fun t_C_N2_6 () Real)
(declare-fun t_B_N2_5 () Real)
(declare-fun t_C_N1_3 () Real)
(declare-fun t_B_N1_2 () Real)
(declare-fun t_A_N1_1 () Real)
(declare-fun t_A_N2_4 () Real)
(declare-fun t_A_N3_7 () Real)
(declare-fun t_A_N4_10 () Real)
(declare-fun t_A_N5_13 () Real)
(declare-fun t_B_N5_14 () Real)
(declare-fun t_C_N5_15 () Real)
(assert (let ((?v_11 (- t_Goal_16 t_C_N4_12)) (?v_10 (- t_Goal_16 t_B_N4_11)) (?v_8 (- t_Goal_16 t_C_N3_9)) (?v_7 (- t_Goal_16 t_B_N3_8)) (?v_5 (- t_Goal_16 t_C_N2_6)) (?v_4 (- t_Goal_16 t_B_N2_5)) (?v_2 (- t_Goal_16 t_C_N1_3)) (?v_1 (- t_Goal_16 t_B_N1_2)) (?v_0 (- t_Goal_16 t_A_N1_1)) (?v_3 (- t_Goal_16 t_A_N2_4)) (?v_6 (- t_Goal_16 t_A_N3_7)) (?v_9 (- t_Goal_16 t_A_N4_10)) (?v_12 (- t_Goal_16 t_A_N5_13)) (?v_13 (- t_Goal_16 t_B_N5_14)) (?v_34 (- t_Goal_16 t_C_N5_15)) (?v_29 (- t_B_N1_2 t_A_N1_1))) (let ((?v_28 (< ?v_29 5)) (?v_27 (- t_C_N1_3 t_B_N1_2))) (let ((?v_26 (< ?v_27 4)) (?v_25 (- t_B_N2_5 t_A_N2_4))) (let ((?v_24 (< ?v_25 5)) (?v_23 (- t_C_N2_6 t_B_N2_5))) (let ((?v_22 (< ?v_23 4)) (?v_21 (- t_B_N3_8 t_A_N3_7))) (let ((?v_20 (< ?v_21 5)) (?v_19 (- t_C_N3_9 t_B_N3_8))) (let ((?v_18 (< ?v_19 4)) (?v_17 (- t_B_N4_11 t_A_N4_10))) (let ((?v_16 (< ?v_17 5)) (?v_15 (- t_C_N4_12 t_B_N4_11))) (let ((?v_14 (< ?v_15 4)) (?v_31 (- t_B_N5_14 t_A_N5_13))) (let ((?v_30 (< ?v_31 5)) (?v_33 (- t_C_N5_15 t_B_N5_14))) (let ((?v_32 (< ?v_33 4)) (?v_53 (- t_A_N5_13 t_C_N4_12)) (?v_48 (- t_A_N4_10 t_C_N3_9)) (?v_43 (- t_A_N3_7 t_C_N2_6)) (?v_38 (- t_A_N2_4 t_C_N1_3)) (?v_35 (- t_A_N2_4 t_A_N1_1)) (?v_40 (- t_A_N3_7 t_A_N2_4)) (?v_45 (- t_A_N4_10 t_A_N3_7)) (?v_50 (- t_A_N5_13 t_A_N4_10))) (let ((?v_68 (< ?v_35 5)) (?v_36 (> ?v_29 1))) (let ((?v_67 (or ?v_68 ?v_36)) (?v_37 (< ?v_0 6)) (?v_39 (< (- t_C_N1_3 t_A_N1_1) 4))) (let ((?v_66 (or (< ?v_38 1) ?v_39)) (?v_65 (< ?v_40 5)) (?v_41 (> ?v_25 1))) (let ((?v_64 (or ?v_65 ?v_41)) (?v_42 (< ?v_3 6)) (?v_44 (< (- t_C_N2_6 t_A_N2_4) 4))) (let ((?v_63 (or (< ?v_43 1) ?v_44)) (?v_62 (< ?v_45 5)) (?v_46 (> ?v_21 1))) (let ((?v_61 (or ?v_62 ?v_46)) (?v_47 (< ?v_6 6)) (?v_49 (< (- t_C_N3_9 t_A_N3_7) 4))) (let ((?v_60 (or (< ?v_48 1) ?v_49)) (?v_59 (< ?v_50 5)) (?v_51 (> ?v_17 1))) (let ((?v_58 (or ?v_59 ?v_51)) (?v_52 (< ?v_9 6)) (?v_54 (< (- t_C_N4_12 t_A_N4_10) 4))) (let ((?v_57 (or (< ?v_53 1) ?v_54)) (?v_55 (> ?v_31 1))) (let ((?v_69 (or (< ?v_31 1) ?v_55)) (?v_56 (< ?v_12 6)) (?v_71 (- t_C_N5_15 t_A_N5_13))) (let ((?v_70 (< ?v_71 4))) (and (= St_spy_variable (+ 1 t_Init_0)) (>= t_Goal_16 t_Init_0) (>= (- t_C_N4_12 t_Init_0) 0) (>= ?v_11 1) (>= (- t_B_N4_11 t_Init_0) 0) (>= ?v_10 4) (>= (- t_C_N3_9 t_Init_0) 0) (>= ?v_8 1) (>= (- t_B_N3_8 t_Init_0) 0) (>= ?v_7 4) (>= (- t_C_N2_6 t_Init_0) 0) (>= ?v_5 1) (>= (- t_B_N2_5 t_Init_0) 0) (>= ?v_4 4) (>= (- t_C_N1_3 t_Init_0) 0) (>= ?v_2 1) (>= (- t_B_N1_2 t_Init_0) 0) (>= ?v_1 4) (>= (- t_A_N1_1 t_Init_0) 0) (>= ?v_0 5) (>= (- t_A_N2_4 t_Init_0) 0) (>= ?v_3 5) (>= (- t_A_N3_7 t_Init_0) 0) (>= ?v_6 5) (>= (- t_A_N4_10 t_Init_0) 0) (>= ?v_9 5) (>= (- t_A_N5_13 t_Init_0) 0) (>= ?v_12 5) (>= (- t_B_N5_14 t_Init_0) 0) (>= ?v_13 4) (>= (- t_C_N5_15 t_Init_0) 0) (>= ?v_34 1) ?v_28 (>= ?v_0 6) ?v_26 (>= ?v_1 5) (>= ?v_2 2) ?v_24 (>= ?v_3 6) ?v_22 (>= ?v_4 5) (>= ?v_5 2) ?v_20 (>= ?v_6 6) ?v_18 (>= ?v_7 5) (>= ?v_8 2) ?v_16 (>= ?v_9 6) ?v_14 (>= ?v_10 5) (>= ?v_11 2) ?v_30 (>= ?v_12 6) ?v_32 (>= ?v_13 5) ?v_14 ?v_14 (>= ?v_15 0) (>= ?v_53 1) ?v_16 ?v_16 (>= ?v_17 0) (>= (- t_A_N5_13 t_B_N4_11) 4) ?v_18 ?v_18 (>= ?v_19 0) (>= ?v_48 1) ?v_20 ?v_20 (>= ?v_21 0) (>= (- t_A_N4_10 t_B_N3_8) 4) ?v_22 ?v_22 (>= ?v_23 0) (>= ?v_43 1) ?v_24 ?v_24 (>= ?v_25 0) (>= (- t_A_N3_7 t_B_N2_5) 4) ?v_26 ?v_26 (>= ?v_27 0) (>= ?v_38 1) ?v_28 ?v_28 (>= ?v_29 0) (>= (- t_A_N2_4 t_B_N1_2) 4) (>= ?v_35 5) (>= ?v_40 5) (>= ?v_45 5) (>= ?v_50 5) ?v_30 (>= ?v_31 0) ?v_32 (>= ?v_33 0) (>= ?v_34 2) ?v_67 (or ?v_37 ?v_36) (or ?v_39 (< ?v_2 2)) (or ?v_36 ?v_37) ?v_66 ?v_64 (or ?v_42 ?v_41) (or ?v_44 (< ?v_5 2)) (or ?v_41 ?v_42) ?v_63 ?v_61 (or ?v_47 ?v_46) (or ?v_49 (< ?v_8 2)) (or ?v_46 ?v_47) ?v_60 ?v_58 (or ?v_52 ?v_51) (or ?v_54 (< ?v_11 2)) (or ?v_51 ?v_52) ?v_57 ?v_69 (or ?v_56 ?v_55) (or ?v_70 (< ?v_34 2)) (or ?v_55 ?v_56) (or ?v_51 (< ?v_17 1)) ?v_57 ?v_58 (or ?v_51 ?v_59) (or ?v_46 (< ?v_21 1)) ?v_60 ?v_61 (or ?v_46 ?v_62) (or ?v_41 (< ?v_25 1)) ?v_63 ?v_64 (or ?v_41 ?v_65) (or ?v_36 (< ?v_29 1)) ?v_66 ?v_67 (or ?v_36 ?v_68) ?v_69 (or ?v_70 (> ?v_71 4))))))))))))))))))))))))))
(check-sat)
(exit)
